problem_generation/data/GISP/train/er_n=65_m=1237_p=0.60_SET2_setparam=100.00_alpha=0.50_348.lp
maximize
OBJ:100x0 + 100x1 + 100x2 + 100x3 + 100x4 + 100x5 + 100x6 + 100x7 + 100x8 + 100x9 + 100x10 + 100x11 + 100x12 + 100x13 + 100x14 + 100x15 + 100x16 + 100x17 + 100x18 + 100x19 + 100x20 + 100x21 + 100x22 + 100x23 + 100x24 + 100x25 + 100x26 + 100x27 + 100x28 + 100x29 + 100x30 + 100x31 + 100x32 + 100x33 + 100x34 + 100x35 + 100x36 + 100x37 + 100x38 + 100x39 + 100x40 + 100x41 + 100x42 + 100x43 + 100x44 + 100x45 + 100x46 + 100x47 + 100x48 + 100x49 + 100x50 + 100x51 + 100x52 + 100x53 + 100x54 + 100x55 + 100x56 + 100x57 + 100x58 + 100x59 + 100x60 + 100x61 + 100x62 + 100x63 + 100x64 - y15_21 - y17_58 - y29_32 - y18_44 - y11_14 - y40_59 - y21_64 - y41_42 - y25_34 - y33_47 - y25_43 - y14_24 - y32_60 - y22_37 - y22_46 - y14_51 - y7_12 - y36_48 - y15_25 - y47_48 - y55_61 - y7_21 - y18_21 - y47_57 - y9_58 - y29_36 - y40_45 - y29_63 - y40_63 - y10_22 - y2_27 - y25_38 - y22_23 - y2_54 - y3_19 - y43_55 - y43_64 - y35_60 - y17_39 - y9_53 - y6_29 - y6_38 - y10_17 - y39_62 - y62_64 - y33_37 - y25_33 - y2_40 - y51_54 - y3_23 - y32_59 - y1_53 - y14_32 - y13_64 - y35_64 - y16_60 - y55_60 - y5_41 - y28_43 - y36_56 - y5_50 - y6_15 - y28_52 - y17_61 - y21_22 - y6_42 - y21_40 - y6_51 - y21_49 - y10_12 - y39_48 - y54_55 - y24_32 - y32_45 - y43_45 - y32_54 - y16_37 - y13_50 - y24_50 - y16_46 - y13_59 - y16_64 - y6_10 - y6_28 - y29_30 - y61_62 - y6_37 - y10_16 - y2_21 - y4_49 - y24_27 - y32_40 - y51_53 - y16_32 - y1_43 - y32_58 - y16_41 - y13_54 - y13_63 - y17_24 - y5_31 - y17_33 - y28_42 - y9_38 - y9_47 - y42_44 - y42_53 - y19_60 - y20_34 - y31_34 - y2_16 - y20_52 - y12_48 - y32_35 - y32_44 - y16_36 - y35_49 - y1_56 - y35_58 - y5_17 - y38_51 - y38_60 - y5_35 - y17_37 - y28_37 - y9_33 - y27_41 - y50_52 - y50_61 - y8_55 - y11_51 - y19_64 - y30_64 - y11_60 - y12_25 - y23_25 - y31_38 - y39_60 - y23_43 - y20_56 - y1_15 - y32_39 - y16_22 - y24_44 - y16_49 - y46_50 - y9_10 - y9_19 - y5_30 - y9_28 - y15_62 - y5_39 - y7_58 - y19_41 - y30_41 - y27_54 - y42_43 - y19_59 - y42_61 - y31_42 - y12_38 - y23_38 - y20_51 - y13_21 - y4_52 - y16_17 - y34_53 - y16_35 - y1_46 - y5_7 - y5_16 - y46_54 - y26_48 - y38_50 - y57_63 - y7_44 - y15_57 - y26_57 - y19_27 - y27_40 - y19_36 - y50_51 - y11_32 - y0_50 - y11_50 - y8_63 - y12_15 - y23_24 - y41_60 - y23_33 - y4_29 - y12_42 - y1_5 - y1_14 - y13_16 - y1_23 - y22_55 - y34_57 - y3_51 - y37_53 - y16_30 - y22_64 - y3_60 - y14_60 - y37_62 - y26_34 - y46_49 - y26_43 - y18_39 - y49_54 - y7_48 - y15_61 - y7_57 - y8_22 - y19_22 - y30_31 - y0_27 - y19_49 - y30_49 - y41_46 - y0_54 - y4_15 - y4_24 - y12_37 - y23_37 - y4_33 - y1_18 - y22_50 - y45_52 - y14_46 - y37_48 - y22_59 - y56_61 - y15_20 - y7_25 - y18_34 - y0_4 - y18_52 - y11_13 - y27_39 - y0_22 - y8_44 - y30_44 - y41_50 - y33_46 - y44_46 - y4_19 - y33_55 - y10_62 - y34_38 - y34_47 - y3_41 - y22_54 - y14_50 - y37_52 - y18_20 - y15_33 - y7_38 - y15_51 - y18_56 - y19_21 - y0_17 - y40_53 - y0_26 - y6_60 - y11_26 - y0_35 - y11_35 - y41_45 - y52_54 - y4_14 - y10_48 - y41_63 - y44_50 - y33_59 - y3_27 - y14_27 - y3_36 - y37_47 - y22_58 - y37_56 - y3_63 - y14_63 - y15_28 - y59_62 - y7_42 - y18_42 - y29_39 - y10_43 - y52_58 - y25_41 - y33_54 - y44_54 - y25_50 - y33_63 - y22_26 - y44_63 - y3_22 - y34_37 - y7_10 - y55_59 - y18_19 - y28_51 - y8_11 - y0_16 - y21_48 - y40_61 - y21_57 - y25_27 - y33_40 - y33_49 - y51_57 - y25_54 - y14_17 - y43_62 - y24_58 - y3_35 - y3_44 - y16_63 - y15_18 - y7_14 - y36_50 - y55_63 - y17_46 - y47_59 - y59_61 - y29_38 - y48_51 - y6_45 - y29_47 - y21_43 - y6_54 - y54_58 - y2_29 - y10_42 - y25_40 - y10_51 - y43_48 - y22_25 - y51_61 - y3_30 - y1_60 - y24_62 - y17_32 - y7_9 - y36_54 - y47_54 - y5_48 - y17_50 - y28_50 - y36_63 - y29_33 - y21_38 - y40_51 - y2_15 - y10_37 - y2_33 - y32_34 - y32_43 - y14_25 - y16_44 - y43_61 - y16_53 - y17_36 - y36_49 - y9_32 - y28_45 - y6_8 - y9_50 - y5_61 - y58_64 - y9_59 - y21_24 - y50_60 - y29_37 - y21_33 - y10_14 - y20_46 - y39_59 - y2_19 - y20_55 - y10_32 - y31_64 - y13_34 - y16_48 - y1_59 - y24_61 - y16_57 - y5_20 - y17_22 - y9_27 - y9_36 - y17_49 - y28_49 - y9_54 - y50_55 - y50_64 - y61_64 - y19_58 - y20_41 - y10_18 - y2_14 - y39_63 - y20_59 - y54_61 - y12_64 - y1_36 - y13_38 - y32_51 - y13_47 - y13_56 - y35_56 - y16_52 - y16_61 - y5_24 - y36_39 - y9_22 - y17_35 - y28_44 - y6_7 - y9_40 - y27_48 - y6_25 - y42_46 - y21_23 - y27_57 - y19_53 - y30_53 - y42_55 - y19_62 - y42_64 - y0_58 - y39_40 - y39_49 - y23_32 - y20_45 - y39_58 - y23_41 - y2_18 - y4_37 - y20_54 - y31_54 - y54_56 - y20_63 - y13_24 - y1_22 - y16_20 - y24_33 - y16_29 - y13_42 - y24_51 - y35_51 - y38_44 - y17_21 - y46_57 - y17_30 - y9_26 - y15_60 - y49_62 - y6_11 - y27_52 - y50_54 - y19_48 - y50_63 - y11_44 - y61_63 - y8_57 - y20_22 - y42_59 - y11_53 - y12_18 - y12_27 - y20_40 - y31_40 - y12_36 - y20_49 - y12_54 - y1_17 - y53_55 - y23_63 - y13_28 - y45_60 - y56_60 - y24_37 - y38_39 - y5_14 - y46_52 - y15_46 - y46_61 - y9_21 - y38_57 - y5_32 - y8_25 - y8_43 - y19_43 - y27_56 - y0_39 - y30_43 - y8_52 - y19_52 - y30_52 - y42_45 - y12_13 - y0_57 - y4_18 - y53_59 - y1_30 - y37_51 - y45_64 - y56_64 - y14_58 - y5_9 - y15_50 - y18_46 - y15_59 - y7_55 - y8_20 - y27_33 - y19_29 - y11_25 - y30_38 - y27_51 - y30_47 - y42_49 - y11_52 - y12_17 - y41_62 - y4_22 - y33_58 - y12_35 - y44_58 - y22_48 - y53_63 - y22_57 - y56_59 - y3_53 - y37_55 - y14_62 - y37_64 - y46_51 - y18_41 - y38_56 - y7_50 - y8_15 - y15_63 - y27_28 - y0_11 - y27_37 - y0_20 - y30_33 - y27_46 - y11_29 - y19_42 - y30_51 - y41_48 - y20_25 - y4_8 - y52_57 - y44_53 - y4_26 - y44_62 - y25_58 - y22_43 - y1_20 - y3_39 - y53_58 - y14_48 - y56_63 - y14_57 - y15_31 - y26_31 - y15_49 - y26_49 - y18_45 - y7_45 - y8_10 - y15_58 - y0_6 - y18_63 - y8_28 - y19_28 - y40_60 - y8_37 - y19_37 - y30_37 - y0_33 - y11_42 - y12_16 - y41_52 - y4_12 - y33_48 - y41_61 - y10_55 - y25_62 - y34_40 - y3_52 - y15_17 - y37_54 - y15_26 - y18_31 - y26_44 - y7_40 - y18_40 - y48_50 - y8_23 - y29_55 - y40_55 - y11_28 - y21_60 - y25_30 - y4_7 - y10_41 - y33_61 - y22_24 - y44_61 - y25_57 - y3_29 - y22_42 - y3_38 - y37_40 - y3_47 - y7_8 - y3_56
 Subject to
C1: x0+x3 <=1 
C2: x0+x4-y0_4 <=1 
C3: x0+x6-y0_6 <=1 
C4: x0+x10 <=1 
C5: x0+x11-y0_11 <=1 
C6: x0+x13 <=1 
C7: x0+x14 <=1 
C8: x0+x15 <=1 
C9: x0+x16-y0_16 <=1 
C10: x0+x17-y0_17 <=1 
C11: x0+x19 <=1 
C12: x0+x20-y0_20 <=1 
C13: x0+x22-y0_22 <=1 
C14: x0+x23 <=1 
C15: x0+x26-y0_26 <=1 
C16: x0+x27-y0_27 <=1 
C17: x0+x32 <=1 
C18: x0+x33-y0_33 <=1 
C19: x0+x35-y0_35 <=1 
C20: x0+x36 <=1 
C21: x0+x39-y0_39 <=1 
C22: x0+x40 <=1 
C23: x0+x42 <=1 
C24: x0+x43 <=1 
C25: x0+x44 <=1 
C26: x0+x45 <=1 
C27: x0+x46 <=1 
C28: x0+x47 <=1 
C29: x0+x48 <=1 
C30: x0+x49 <=1 
C31: x0+x50-y0_50 <=1 
C32: x0+x54-y0_54 <=1 
C33: x0+x56 <=1 
C34: x0+x57-y0_57 <=1 
C35: x0+x58-y0_58 <=1 
C36: x0+x63 <=1 
C37: x1+x2 <=1 
C38: x1+x5-y1_5 <=1 
C39: x1+x6 <=1 
C40: x1+x10 <=1 
C41: x1+x14-y1_14 <=1 
C42: x1+x15-y1_15 <=1 
C43: x1+x16 <=1 
C44: x1+x17-y1_17 <=1 
C45: x1+x18-y1_18 <=1 
C46: x1+x19 <=1 
C47: x1+x20-y1_20 <=1 
C48: x1+x22-y1_22 <=1 
C49: x1+x23-y1_23 <=1 
C50: x1+x24 <=1 
C51: x1+x27 <=1 
C52: x1+x28 <=1 
C53: x1+x30-y1_30 <=1 
C54: x1+x33 <=1 
C55: x1+x36-y1_36 <=1 
C56: x1+x43-y1_43 <=1 
C57: x1+x46-y1_46 <=1 
C58: x1+x47 <=1 
C59: x1+x48 <=1 
C60: x1+x51 <=1 
C61: x1+x52 <=1 
C62: x1+x53-y1_53 <=1 
C63: x1+x55 <=1 
C64: x1+x56-y1_56 <=1 
C65: x1+x57 <=1 
C66: x1+x58 <=1 
C67: x1+x59-y1_59 <=1 
C68: x1+x60-y1_60 <=1 
C69: x1+x62 <=1 
C70: x1+x64 <=1 
C71: x2+x3 <=1 
C72: x2+x4 <=1 
C73: x2+x5 <=1 
C74: x2+x8 <=1 
C75: x2+x10 <=1 
C76: x2+x11 <=1 
C77: x2+x14-y2_14 <=1 
C78: x2+x15-y2_15 <=1 
C79: x2+x16-y2_16 <=1 
C80: x2+x18-y2_18 <=1 
C81: x2+x19-y2_19 <=1 
C82: x2+x21-y2_21 <=1 
C83: x2+x22 <=1 
C84: x2+x25 <=1 
C85: x2+x27-y2_27 <=1 
C86: x2+x29-y2_29 <=1 
C87: x2+x30 <=1 
C88: x2+x32 <=1 
C89: x2+x33-y2_33 <=1 
C90: x2+x40-y2_40 <=1 
C91: x2+x42 <=1 
C92: x2+x44 <=1 
C93: x2+x48 <=1 
C94: x2+x49 <=1 
C95: x2+x51 <=1 
C96: x2+x52 <=1 
C97: x2+x53 <=1 
C98: x2+x54-y2_54 <=1 
C99: x2+x57 <=1 
C100: x2+x62 <=1 
C101: x2+x63 <=1 
C102: x2+x64 <=1 
C103: x3+x5 <=1 
C104: x3+x8 <=1 
C105: x3+x9 <=1 
C106: x3+x13 <=1 
C107: x3+x15 <=1 
C108: x3+x19-y3_19 <=1 
C109: x3+x22-y3_22 <=1 
C110: x3+x23-y3_23 <=1 
C111: x3+x24 <=1 
C112: x3+x25 <=1 
C113: x3+x27-y3_27 <=1 
C114: x3+x29-y3_29 <=1 
C115: x3+x30-y3_30 <=1 
C116: x3+x33 <=1 
C117: x3+x35-y3_35 <=1 
C118: x3+x36-y3_36 <=1 
C119: x3+x38-y3_38 <=1 
C120: x3+x39-y3_39 <=1 
C121: x3+x41-y3_41 <=1 
C122: x3+x44-y3_44 <=1 
C123: x3+x46 <=1 
C124: x3+x47-y3_47 <=1 
C125: x3+x48 <=1 
C126: x3+x49 <=1 
C127: x3+x51-y3_51 <=1 
C128: x3+x52-y3_52 <=1 
C129: x3+x53-y3_53 <=1 
C130: x3+x54 <=1 
C131: x3+x55 <=1 
C132: x3+x56-y3_56 <=1 
C133: x3+x58 <=1 
C134: x3+x60-y3_60 <=1 
C135: x3+x63-y3_63 <=1 
C136: x3+x64 <=1 
C137: x4+x6 <=1 
C138: x4+x7-y4_7 <=1 
C139: x4+x8-y4_8 <=1 
C140: x4+x12-y4_12 <=1 
C141: x4+x13 <=1 
C142: x4+x14-y4_14 <=1 
C143: x4+x15-y4_15 <=1 
C144: x4+x17 <=1 
C145: x4+x18-y4_18 <=1 
C146: x4+x19-y4_19 <=1 
C147: x4+x20 <=1 
C148: x4+x21 <=1 
C149: x4+x22-y4_22 <=1 
C150: x4+x23 <=1 
C151: x4+x24-y4_24 <=1 
C152: x4+x25 <=1 
C153: x4+x26-y4_26 <=1 
C154: x4+x29-y4_29 <=1 
C155: x4+x30 <=1 
C156: x4+x33-y4_33 <=1 
C157: x4+x37-y4_37 <=1 
C158: x4+x38 <=1 
C159: x4+x39 <=1 
C160: x4+x40 <=1 
C161: x4+x41 <=1 
C162: x4+x43 <=1 
C163: x4+x48 <=1 
C164: x4+x49-y4_49 <=1 
C165: x4+x51 <=1 
C166: x4+x52-y4_52 <=1 
C167: x4+x54 <=1 
C168: x4+x57 <=1 
C169: x4+x58 <=1 
C170: x4+x60 <=1 
C171: x4+x61 <=1 
C172: x5+x7-y5_7 <=1 
C173: x5+x9-y5_9 <=1 
C174: x5+x10 <=1 
C175: x5+x14-y5_14 <=1 
C176: x5+x16-y5_16 <=1 
C177: x5+x17-y5_17 <=1 
C178: x5+x20-y5_20 <=1 
C179: x5+x21 <=1 
C180: x5+x22 <=1 
C181: x5+x24-y5_24 <=1 
C182: x5+x25 <=1 
C183: x5+x26 <=1 
C184: x5+x27 <=1 
C185: x5+x28 <=1 
C186: x5+x30-y5_30 <=1 
C187: x5+x31-y5_31 <=1 
C188: x5+x32-y5_32 <=1 
C189: x5+x34 <=1 
C190: x5+x35-y5_35 <=1 
C191: x5+x36 <=1 
C192: x5+x38 <=1 
C193: x5+x39-y5_39 <=1 
C194: x5+x41-y5_41 <=1 
C195: x5+x42 <=1 
C196: x5+x44 <=1 
C197: x5+x46 <=1 
C198: x5+x48-y5_48 <=1 
C199: x5+x49 <=1 
C200: x5+x50-y5_50 <=1 
C201: x5+x52 <=1 
C202: x5+x53 <=1 
C203: x5+x57 <=1 
C204: x5+x61-y5_61 <=1 
C205: x5+x63 <=1 
C206: x5+x64 <=1 
C207: x6+x7-y6_7 <=1 
C208: x6+x8-y6_8 <=1 
C209: x6+x10-y6_10 <=1 
C210: x6+x11-y6_11 <=1 
C211: x6+x13 <=1 
C212: x6+x15-y6_15 <=1 
C213: x6+x16 <=1 
C214: x6+x17 <=1 
C215: x6+x19 <=1 
C216: x6+x20 <=1 
C217: x6+x24 <=1 
C218: x6+x25-y6_25 <=1 
C219: x6+x27 <=1 
C220: x6+x28-y6_28 <=1 
C221: x6+x29-y6_29 <=1 
C222: x6+x32 <=1 
C223: x6+x37-y6_37 <=1 
C224: x6+x38-y6_38 <=1 
C225: x6+x39 <=1 
C226: x6+x42-y6_42 <=1 
C227: x6+x43 <=1 
C228: x6+x44 <=1 
C229: x6+x45-y6_45 <=1 
C230: x6+x49 <=1 
C231: x6+x51-y6_51 <=1 
C232: x6+x53 <=1 
C233: x6+x54-y6_54 <=1 
C234: x6+x55 <=1 
C235: x6+x56 <=1 
C236: x6+x58 <=1 
C237: x6+x60-y6_60 <=1 
C238: x6+x64 <=1 
C239: x7+x8-y7_8 <=1 
C240: x7+x9-y7_9 <=1 
C241: x7+x10-y7_10 <=1 
C242: x7+x11 <=1 
C243: x7+x12-y7_12 <=1 
C244: x7+x13 <=1 
C245: x7+x14-y7_14 <=1 
C246: x7+x15 <=1 
C247: x7+x19 <=1 
C248: x7+x21-y7_21 <=1 
C249: x7+x22 <=1 
C250: x7+x23 <=1 
C251: x7+x25-y7_25 <=1 
C252: x7+x26 <=1 
C253: x7+x29 <=1 
C254: x7+x31 <=1 
C255: x7+x32 <=1 
C256: x7+x33 <=1 
C257: x7+x36 <=1 
C258: x7+x38-y7_38 <=1 
C259: x7+x40-y7_40 <=1 
C260: x7+x42-y7_42 <=1 
C261: x7+x43 <=1 
C262: x7+x44-y7_44 <=1 
C263: x7+x45-y7_45 <=1 
C264: x7+x47 <=1 
C265: x7+x48-y7_48 <=1 
C266: x7+x49 <=1 
C267: x7+x50-y7_50 <=1 
C268: x7+x55-y7_55 <=1 
C269: x7+x56 <=1 
C270: x7+x57-y7_57 <=1 
C271: x7+x58-y7_58 <=1 
C272: x7+x60 <=1 
C273: x7+x62 <=1 
C274: x8+x10-y8_10 <=1 
C275: x8+x11-y8_11 <=1 
C276: x8+x13 <=1 
C277: x8+x14 <=1 
C278: x8+x15-y8_15 <=1 
C279: x8+x16 <=1 
C280: x8+x18 <=1 
C281: x8+x19 <=1 
C282: x8+x20-y8_20 <=1 
C283: x8+x22-y8_22 <=1 
C284: x8+x23-y8_23 <=1 
C285: x8+x24 <=1 
C286: x8+x25-y8_25 <=1 
C287: x8+x27 <=1 
C288: x8+x28-y8_28 <=1 
C289: x8+x29 <=1 
C290: x8+x30 <=1 
C291: x8+x32 <=1 
C292: x8+x35 <=1 
C293: x8+x37-y8_37 <=1 
C294: x8+x40 <=1 
C295: x8+x42 <=1 
C296: x8+x43-y8_43 <=1 
C297: x8+x44-y8_44 <=1 
C298: x8+x48 <=1 
C299: x8+x49 <=1 
C300: x8+x50 <=1 
C301: x8+x51 <=1 
C302: x8+x52-y8_52 <=1 
C303: x8+x53 <=1 
C304: x8+x54 <=1 
C305: x8+x55-y8_55 <=1 
C306: x8+x57-y8_57 <=1 
C307: x8+x58 <=1 
C308: x8+x59 <=1 
C309: x8+x61 <=1 
C310: x8+x62 <=1 
C311: x8+x63-y8_63 <=1 
C312: x8+x64 <=1 
C313: x9+x10-y9_10 <=1 
C314: x9+x11 <=1 
C315: x9+x14 <=1 
C316: x9+x17 <=1 
C317: x9+x18 <=1 
C318: x9+x19-y9_19 <=1 
C319: x9+x20 <=1 
C320: x9+x21-y9_21 <=1 
C321: x9+x22-y9_22 <=1 
C322: x9+x24 <=1 
C323: x9+x25 <=1 
C324: x9+x26-y9_26 <=1 
C325: x9+x27-y9_27 <=1 
C326: x9+x28-y9_28 <=1 
C327: x9+x29 <=1 
C328: x9+x30 <=1 
C329: x9+x32-y9_32 <=1 
C330: x9+x33-y9_33 <=1 
C331: x9+x36-y9_36 <=1 
C332: x9+x38-y9_38 <=1 
C333: x9+x39 <=1 
C334: x9+x40-y9_40 <=1 
C335: x9+x41 <=1 
C336: x9+x42 <=1 
C337: x9+x44 <=1 
C338: x9+x47-y9_47 <=1 
C339: x9+x49 <=1 
C340: x9+x50-y9_50 <=1 
C341: x9+x52 <=1 
C342: x9+x53-y9_53 <=1 
C343: x9+x54-y9_54 <=1 
C344: x9+x57 <=1 
C345: x9+x58-y9_58 <=1 
C346: x9+x59-y9_59 <=1 
C347: x9+x63 <=1 
C348: x10+x12-y10_12 <=1 
C349: x10+x13 <=1 
C350: x10+x14-y10_14 <=1 
C351: x10+x15 <=1 
C352: x10+x16-y10_16 <=1 
C353: x10+x17-y10_17 <=1 
C354: x10+x18-y10_18 <=1 
C355: x10+x20 <=1 
C356: x10+x21 <=1 
C357: x10+x22-y10_22 <=1 
C358: x10+x26 <=1 
C359: x10+x28 <=1 
C360: x10+x29 <=1 
C361: x10+x32-y10_32 <=1 
C362: x10+x33 <=1 
C363: x10+x34 <=1 
C364: x10+x36 <=1 
C365: x10+x37-y10_37 <=1 
C366: x10+x38 <=1 
C367: x10+x41-y10_41 <=1 
C368: x10+x42-y10_42 <=1 
C369: x10+x43-y10_43 <=1 
C370: x10+x46 <=1 
C371: x10+x47 <=1 
C372: x10+x48-y10_48 <=1 
C373: x10+x51-y10_51 <=1 
C374: x10+x52 <=1 
C375: x10+x55-y10_55 <=1 
C376: x10+x56 <=1 
C377: x10+x60 <=1 
C378: x10+x61 <=1 
C379: x10+x62-y10_62 <=1 
C380: x10+x64 <=1 
C381: x11+x13-y11_13 <=1 
C382: x11+x14-y11_14 <=1 
C383: x11+x15 <=1 
C384: x11+x20 <=1 
C385: x11+x24 <=1 
C386: x11+x25-y11_25 <=1 
C387: x11+x26-y11_26 <=1 
C388: x11+x27 <=1 
C389: x11+x28-y11_28 <=1 
C390: x11+x29-y11_29 <=1 
C391: x11+x32-y11_32 <=1 
C392: x11+x33 <=1 
C393: x11+x34 <=1 
C394: x11+x35-y11_35 <=1 
C395: x11+x36 <=1 
C396: x11+x37 <=1 
C397: x11+x38 <=1 
C398: x11+x40 <=1 
C399: x11+x42-y11_42 <=1 
C400: x11+x43 <=1 
C401: x11+x44-y11_44 <=1 
C402: x11+x48 <=1 
C403: x11+x49 <=1 
C404: x11+x50-y11_50 <=1 
C405: x11+x51-y11_51 <=1 
C406: x11+x52-y11_52 <=1 
C407: x11+x53-y11_53 <=1 
C408: x11+x55 <=1 
C409: x11+x56 <=1 
C410: x11+x57 <=1 
C411: x11+x60-y11_60 <=1 
C412: x11+x63 <=1 
C413: x12+x13-y12_13 <=1 
C414: x12+x14 <=1 
C415: x12+x15-y12_15 <=1 
C416: x12+x16-y12_16 <=1 
C417: x12+x17-y12_17 <=1 
C418: x12+x18-y12_18 <=1 
C419: x12+x23 <=1 
C420: x12+x25-y12_25 <=1 
C421: x12+x26 <=1 
C422: x12+x27-y12_27 <=1 
C423: x12+x29 <=1 
C424: x12+x31 <=1 
C425: x12+x34 <=1 
C426: x12+x35-y12_35 <=1 
C427: x12+x36-y12_36 <=1 
C428: x12+x37-y12_37 <=1 
C429: x12+x38-y12_38 <=1 
C430: x12+x41 <=1 
C431: x12+x42-y12_42 <=1 
C432: x12+x43 <=1 
C433: x12+x47 <=1 
C434: x12+x48-y12_48 <=1 
C435: x12+x50 <=1 
C436: x12+x51 <=1 
C437: x12+x53 <=1 
C438: x12+x54-y12_54 <=1 
C439: x12+x63 <=1 
C440: x12+x64-y12_64 <=1 
C441: x13+x14 <=1 
C442: x13+x16-y13_16 <=1 
C443: x13+x17 <=1 
C444: x13+x21-y13_21 <=1 
C445: x13+x24-y13_24 <=1 
C446: x13+x25 <=1 
C447: x13+x27 <=1 
C448: x13+x28-y13_28 <=1 
C449: x13+x32 <=1 
C450: x13+x34-y13_34 <=1 
C451: x13+x35 <=1 
C452: x13+x38-y13_38 <=1 
C453: x13+x39 <=1 
C454: x13+x40 <=1 
C455: x13+x42-y13_42 <=1 
C456: x13+x43 <=1 
C457: x13+x47-y13_47 <=1 
C458: x13+x49 <=1 
C459: x13+x50-y13_50 <=1 
C460: x13+x51 <=1 
C461: x13+x53 <=1 
C462: x13+x54-y13_54 <=1 
C463: x13+x55 <=1 
C464: x13+x56-y13_56 <=1 
C465: x13+x57 <=1 
C466: x13+x59-y13_59 <=1 
C467: x13+x63-y13_63 <=1 
C468: x13+x64-y13_64 <=1 
C469: x14+x17-y14_17 <=1 
C470: x14+x18 <=1 
C471: x14+x19 <=1 
C472: x14+x22 <=1 
C473: x14+x23 <=1 
C474: x14+x24-y14_24 <=1 
C475: x14+x25-y14_25 <=1 
C476: x14+x27-y14_27 <=1 
C477: x14+x32-y14_32 <=1 
C478: x14+x36 <=1 
C479: x14+x38 <=1 
C480: x14+x39 <=1 
C481: x14+x40 <=1 
C482: x14+x41 <=1 
C483: x14+x42 <=1 
C484: x14+x44 <=1 
C485: x14+x46-y14_46 <=1 
C486: x14+x48-y14_48 <=1 
C487: x14+x49 <=1 
C488: x14+x50-y14_50 <=1 
C489: x14+x51-y14_51 <=1 
C490: x14+x52 <=1 
C491: x14+x53 <=1 
C492: x14+x54 <=1 
C493: x14+x57-y14_57 <=1 
C494: x14+x58-y14_58 <=1 
C495: x14+x60-y14_60 <=1 
C496: x14+x61 <=1 
C497: x14+x62-y14_62 <=1 
C498: x14+x63-y14_63 <=1 
C499: x15+x17-y15_17 <=1 
C500: x15+x18-y15_18 <=1 
C501: x15+x19 <=1 
C502: x15+x20-y15_20 <=1 
C503: x15+x21-y15_21 <=1 
C504: x15+x25-y15_25 <=1 
C505: x15+x26-y15_26 <=1 
C506: x15+x27 <=1 
C507: x15+x28-y15_28 <=1 
C508: x15+x29 <=1 
C509: x15+x30 <=1 
C510: x15+x31-y15_31 <=1 
C511: x15+x32 <=1 
C512: x15+x33-y15_33 <=1 
C513: x15+x35 <=1 
C514: x15+x40 <=1 
C515: x15+x46-y15_46 <=1 
C516: x15+x47 <=1 
C517: x15+x49-y15_49 <=1 
C518: x15+x50-y15_50 <=1 
C519: x15+x51-y15_51 <=1 
C520: x15+x53 <=1 
C521: x15+x54 <=1 
C522: x15+x55 <=1 
C523: x15+x57-y15_57 <=1 
C524: x15+x58-y15_58 <=1 
C525: x15+x59-y15_59 <=1 
C526: x15+x60-y15_60 <=1 
C527: x15+x61-y15_61 <=1 
C528: x15+x62-y15_62 <=1 
C529: x15+x63-y15_63 <=1 
C530: x16+x17-y16_17 <=1 
C531: x16+x18 <=1 
C532: x16+x20-y16_20 <=1 
C533: x16+x22-y16_22 <=1 
C534: x16+x23 <=1 
C535: x16+x26 <=1 
C536: x16+x29-y16_29 <=1 
C537: x16+x30-y16_30 <=1 
C538: x16+x32-y16_32 <=1 
C539: x16+x35-y16_35 <=1 
C540: x16+x36-y16_36 <=1 
C541: x16+x37-y16_37 <=1 
C542: x16+x39 <=1 
C543: x16+x40 <=1 
C544: x16+x41-y16_41 <=1 
C545: x16+x42 <=1 
C546: x16+x43 <=1 
C547: x16+x44-y16_44 <=1 
C548: x16+x46-y16_46 <=1 
C549: x16+x48-y16_48 <=1 
C550: x16+x49-y16_49 <=1 
C551: x16+x52-y16_52 <=1 
C552: x16+x53-y16_53 <=1 
C553: x16+x54 <=1 
C554: x16+x57-y16_57 <=1 
C555: x16+x60-y16_60 <=1 
C556: x16+x61-y16_61 <=1 
C557: x16+x63-y16_63 <=1 
C558: x16+x64-y16_64 <=1 
C559: x17+x21-y17_21 <=1 
C560: x17+x22-y17_22 <=1 
C561: x17+x23 <=1 
C562: x17+x24-y17_24 <=1 
C563: x17+x26 <=1 
C564: x17+x27 <=1 
C565: x17+x28 <=1 
C566: x17+x30-y17_30 <=1 
C567: x17+x31 <=1 
C568: x17+x32-y17_32 <=1 
C569: x17+x33-y17_33 <=1 
C570: x17+x35-y17_35 <=1 
C571: x17+x36-y17_36 <=1 
C572: x17+x37-y17_37 <=1 
C573: x17+x38 <=1 
C574: x17+x39-y17_39 <=1 
C575: x17+x40 <=1 
C576: x17+x44 <=1 
C577: x17+x46-y17_46 <=1 
C578: x17+x48 <=1 
C579: x17+x49-y17_49 <=1 
C580: x17+x50-y17_50 <=1 
C581: x17+x57 <=1 
C582: x17+x58-y17_58 <=1 
C583: x17+x59 <=1 
C584: x17+x61-y17_61 <=1 
C585: x17+x62 <=1 
C586: x17+x64 <=1 
C587: x18+x19-y18_19 <=1 
C588: x18+x20-y18_20 <=1 
C589: x18+x21-y18_21 <=1 
C590: x18+x22 <=1 
C591: x18+x24 <=1 
C592: x18+x25 <=1 
C593: x18+x26 <=1 
C594: x18+x27 <=1 
C595: x18+x28 <=1 
C596: x18+x31-y18_31 <=1 
C597: x18+x34-y18_34 <=1 
C598: x18+x38 <=1 
C599: x18+x39-y18_39 <=1 
C600: x18+x40-y18_40 <=1 
C601: x18+x41-y18_41 <=1 
C602: x18+x42-y18_42 <=1 
C603: x18+x43 <=1 
C604: x18+x44-y18_44 <=1 
C605: x18+x45-y18_45 <=1 
C606: x18+x46-y18_46 <=1 
C607: x18+x48 <=1 
C608: x18+x49 <=1 
C609: x18+x51 <=1 
C610: x18+x52-y18_52 <=1 
C611: x18+x53 <=1 
C612: x18+x56-y18_56 <=1 
C613: x18+x57 <=1 
C614: x18+x58 <=1 
C615: x18+x59 <=1 
C616: x18+x63-y18_63 <=1 
C617: x19+x21-y19_21 <=1 
C618: x19+x22-y19_22 <=1 
C619: x19+x26 <=1 
C620: x19+x27-y19_27 <=1 
C621: x19+x28-y19_28 <=1 
C622: x19+x29-y19_29 <=1 
C623: x19+x31 <=1 
C624: x19+x32 <=1 
C625: x19+x35 <=1 
C626: x19+x36-y19_36 <=1 
C627: x19+x37-y19_37 <=1 
C628: x19+x38 <=1 
C629: x19+x40 <=1 
C630: x19+x41-y19_41 <=1 
C631: x19+x42-y19_42 <=1 
C632: x19+x43-y19_43 <=1 
C633: x19+x44 <=1 
C634: x19+x45 <=1 
C635: x19+x48-y19_48 <=1 
C636: x19+x49-y19_49 <=1 
C637: x19+x50 <=1 
C638: x19+x51 <=1 
C639: x19+x52-y19_52 <=1 
C640: x19+x53-y19_53 <=1 
C641: x19+x54 <=1 
C642: x19+x56 <=1 
C643: x19+x57 <=1 
C644: x19+x58-y19_58 <=1 
C645: x19+x59-y19_59 <=1 
C646: x19+x60-y19_60 <=1 
C647: x19+x61 <=1 
C648: x19+x62-y19_62 <=1 
C649: x19+x63 <=1 
C650: x19+x64-y19_64 <=1 
C651: x20+x22-y20_22 <=1 
C652: x20+x25-y20_25 <=1 
C653: x20+x26 <=1 
C654: x20+x28 <=1 
C655: x20+x30 <=1 
C656: x20+x33 <=1 
C657: x20+x34-y20_34 <=1 
C658: x20+x35 <=1 
C659: x20+x38 <=1 
C660: x20+x39 <=1 
C661: x20+x40-y20_40 <=1 
C662: x20+x41-y20_41 <=1 
C663: x20+x42 <=1 
C664: x20+x43 <=1 
C665: x20+x45-y20_45 <=1 
C666: x20+x46-y20_46 <=1 
C667: x20+x47 <=1 
C668: x20+x48 <=1 
C669: x20+x49-y20_49 <=1 
C670: x20+x51-y20_51 <=1 
C671: x20+x52-y20_52 <=1 
C672: x20+x54-y20_54 <=1 
C673: x20+x55-y20_55 <=1 
C674: x20+x56-y20_56 <=1 
C675: x20+x59-y20_59 <=1 
C676: x20+x60 <=1 
C677: x20+x63-y20_63 <=1 
C678: x20+x64 <=1 
C679: x21+x22-y21_22 <=1 
C680: x21+x23-y21_23 <=1 
C681: x21+x24-y21_24 <=1 
C682: x21+x25 <=1 
C683: x21+x27 <=1 
C684: x21+x28 <=1 
C685: x21+x30 <=1 
C686: x21+x33-y21_33 <=1 
C687: x21+x36 <=1 
C688: x21+x38-y21_38 <=1 
C689: x21+x39 <=1 
C690: x21+x40-y21_40 <=1 
C691: x21+x42 <=1 
C692: x21+x43-y21_43 <=1 
C693: x21+x48-y21_48 <=1 
C694: x21+x49-y21_49 <=1 
C695: x21+x51 <=1 
C696: x21+x56 <=1 
C697: x21+x57-y21_57 <=1 
C698: x21+x58 <=1 
C699: x21+x59 <=1 
C700: x21+x60-y21_60 <=1 
C701: x21+x61 <=1 
C702: x21+x64-y21_64 <=1 
C703: x22+x23-y22_23 <=1 
C704: x22+x24-y22_24 <=1 
C705: x22+x25-y22_25 <=1 
C706: x22+x26-y22_26 <=1 
C707: x22+x27 <=1 
C708: x22+x29 <=1 
C709: x22+x31 <=1 
C710: x22+x33 <=1 
C711: x22+x36 <=1 
C712: x22+x37-y22_37 <=1 
C713: x22+x39 <=1 
C714: x22+x42-y22_42 <=1 
C715: x22+x43-y22_43 <=1 
C716: x22+x46-y22_46 <=1 
C717: x22+x47 <=1 
C718: x22+x48-y22_48 <=1 
C719: x22+x49 <=1 
C720: x22+x50-y22_50 <=1 
C721: x22+x51 <=1 
C722: x22+x53 <=1 
C723: x22+x54-y22_54 <=1 
C724: x22+x55-y22_55 <=1 
C725: x22+x57-y22_57 <=1 
C726: x22+x58-y22_58 <=1 
C727: x22+x59-y22_59 <=1 
C728: x22+x60 <=1 
C729: x22+x61 <=1 
C730: x22+x64-y22_64 <=1 
C731: x23+x24-y23_24 <=1 
C732: x23+x25-y23_25 <=1 
C733: x23+x26 <=1 
C734: x23+x27 <=1 
C735: x23+x28 <=1 
C736: x23+x32-y23_32 <=1 
C737: x23+x33-y23_33 <=1 
C738: x23+x34 <=1 
C739: x23+x37-y23_37 <=1 
C740: x23+x38-y23_38 <=1 
C741: x23+x39 <=1 
C742: x23+x41-y23_41 <=1 
C743: x23+x43-y23_43 <=1 
C744: x23+x46 <=1 
C745: x23+x47 <=1 
C746: x23+x48 <=1 
C747: x23+x50 <=1 
C748: x23+x55 <=1 
C749: x23+x60 <=1 
C750: x23+x61 <=1 
C751: x23+x62 <=1 
C752: x23+x63-y23_63 <=1 
C753: x23+x64 <=1 
C754: x24+x27-y24_27 <=1 
C755: x24+x31 <=1 
C756: x24+x32-y24_32 <=1 
C757: x24+x33-y24_33 <=1 
C758: x24+x34 <=1 
C759: x24+x35 <=1 
C760: x24+x36 <=1 
C761: x24+x37-y24_37 <=1 
C762: x24+x38 <=1 
C763: x24+x39 <=1 
C764: x24+x40 <=1 
C765: x24+x44-y24_44 <=1 
C766: x24+x49 <=1 
C767: x24+x50-y24_50 <=1 
C768: x24+x51-y24_51 <=1 
C769: x24+x52 <=1 
C770: x24+x53 <=1 
C771: x24+x57 <=1 
C772: x24+x58-y24_58 <=1 
C773: x24+x59 <=1 
C774: x24+x61-y24_61 <=1 
C775: x24+x62-y24_62 <=1 
C776: x24+x63 <=1 
C777: x24+x64 <=1 
C778: x25+x27-y25_27 <=1 
C779: x25+x29 <=1 
C780: x25+x30-y25_30 <=1 
C781: x25+x32 <=1 
C782: x25+x33-y25_33 <=1 
C783: x25+x34-y25_34 <=1 
C784: x25+x35 <=1 
C785: x25+x36 <=1 
C786: x25+x37 <=1 
C787: x25+x38-y25_38 <=1 
C788: x25+x39 <=1 
C789: x25+x40-y25_40 <=1 
C790: x25+x41-y25_41 <=1 
C791: x25+x43-y25_43 <=1 
C792: x25+x47 <=1 
C793: x25+x50-y25_50 <=1 
C794: x25+x54-y25_54 <=1 
C795: x25+x57-y25_57 <=1 
C796: x25+x58-y25_58 <=1 
C797: x25+x59 <=1 
C798: x25+x60 <=1 
C799: x25+x62-y25_62 <=1 
C800: x25+x63 <=1 
C801: x25+x64 <=1 
C802: x26+x27 <=1 
C803: x26+x31-y26_31 <=1 
C804: x26+x34-y26_34 <=1 
C805: x26+x35 <=1 
C806: x26+x40 <=1 
C807: x26+x41 <=1 
C808: x26+x43-y26_43 <=1 
C809: x26+x44-y26_44 <=1 
C810: x26+x45 <=1 
C811: x26+x46 <=1 
C812: x26+x48-y26_48 <=1 
C813: x26+x49-y26_49 <=1 
C814: x26+x51 <=1 
C815: x26+x52 <=1 
C816: x26+x54 <=1 
C817: x26+x57-y26_57 <=1 
C818: x26+x59 <=1 
C819: x26+x60 <=1 
C820: x26+x61 <=1 
C821: x26+x64 <=1 
C822: x27+x28-y27_28 <=1 
C823: x27+x29 <=1 
C824: x27+x30 <=1 
C825: x27+x31 <=1 
C826: x27+x33-y27_33 <=1 
C827: x27+x36 <=1 
C828: x27+x37-y27_37 <=1 
C829: x27+x39-y27_39 <=1 
C830: x27+x40-y27_40 <=1 
C831: x27+x41-y27_41 <=1 
C832: x27+x42 <=1 
C833: x27+x43 <=1 
C834: x27+x46-y27_46 <=1 
C835: x27+x47 <=1 
C836: x27+x48-y27_48 <=1 
C837: x27+x50 <=1 
C838: x27+x51-y27_51 <=1 
C839: x27+x52-y27_52 <=1 
C840: x27+x54-y27_54 <=1 
C841: x27+x55 <=1 
C842: x27+x56-y27_56 <=1 
C843: x27+x57-y27_57 <=1 
C844: x27+x58 <=1 
C845: x27+x64 <=1 
C846: x28+x32 <=1 
C847: x28+x36 <=1 
C848: x28+x37-y28_37 <=1 
C849: x28+x41 <=1 
C850: x28+x42-y28_42 <=1 
C851: x28+x43-y28_43 <=1 
C852: x28+x44-y28_44 <=1 
C853: x28+x45-y28_45 <=1 
C854: x28+x47 <=1 
C855: x28+x48 <=1 
C856: x28+x49-y28_49 <=1 
C857: x28+x50-y28_50 <=1 
C858: x28+x51-y28_51 <=1 
C859: x28+x52-y28_52 <=1 
C860: x28+x53 <=1 
C861: x28+x56 <=1 
C862: x28+x59 <=1 
C863: x28+x61 <=1 
C864: x29+x30-y29_30 <=1 
C865: x29+x32-y29_32 <=1 
C866: x29+x33-y29_33 <=1 
C867: x29+x34 <=1 
C868: x29+x35 <=1 
C869: x29+x36-y29_36 <=1 
C870: x29+x37-y29_37 <=1 
C871: x29+x38-y29_38 <=1 
C872: x29+x39-y29_39 <=1 
C873: x29+x41 <=1 
C874: x29+x47-y29_47 <=1 
C875: x29+x48 <=1 
C876: x29+x50 <=1 
C877: x29+x51 <=1 
C878: x29+x53 <=1 
C879: x29+x55-y29_55 <=1 
C880: x29+x57 <=1 
C881: x29+x58 <=1 
C882: x29+x60 <=1 
C883: x29+x61 <=1 
C884: x29+x62 <=1 
C885: x29+x63-y29_63 <=1 
C886: x30+x31-y30_31 <=1 
C887: x30+x32 <=1 
C888: x30+x33-y30_33 <=1 
C889: x30+x37-y30_37 <=1 
C890: x30+x38-y30_38 <=1 
C891: x30+x39 <=1 
C892: x30+x41-y30_41 <=1 
C893: x30+x43-y30_43 <=1 
C894: x30+x44-y30_44 <=1 
C895: x30+x45 <=1 
C896: x30+x47-y30_47 <=1 
C897: x30+x49-y30_49 <=1 
C898: x30+x51-y30_51 <=1 
C899: x30+x52-y30_52 <=1 
C900: x30+x53-y30_53 <=1 
C901: x30+x54 <=1 
C902: x30+x58 <=1 
C903: x30+x59 <=1 
C904: x30+x64-y30_64 <=1 
C905: x31+x34-y31_34 <=1 
C906: x31+x37 <=1 
C907: x31+x38-y31_38 <=1 
C908: x31+x39 <=1 
C909: x31+x40-y31_40 <=1 
C910: x31+x42-y31_42 <=1 
C911: x31+x45 <=1 
C912: x31+x46 <=1 
C913: x31+x47 <=1 
C914: x31+x48 <=1 
C915: x31+x50 <=1 
C916: x31+x51 <=1 
C917: x31+x54-y31_54 <=1 
C918: x31+x59 <=1 
C919: x31+x60 <=1 
C920: x31+x61 <=1 
C921: x31+x63 <=1 
C922: x31+x64-y31_64 <=1 
C923: x32+x34-y32_34 <=1 
C924: x32+x35-y32_35 <=1 
C925: x32+x36 <=1 
C926: x32+x39-y32_39 <=1 
C927: x32+x40-y32_40 <=1 
C928: x32+x43-y32_43 <=1 
C929: x32+x44-y32_44 <=1 
C930: x32+x45-y32_45 <=1 
C931: x32+x47 <=1 
C932: x32+x48 <=1 
C933: x32+x51-y32_51 <=1 
C934: x32+x52 <=1 
C935: x32+x53 <=1 
C936: x32+x54-y32_54 <=1 
C937: x32+x55 <=1 
C938: x32+x57 <=1 
C939: x32+x58-y32_58 <=1 
C940: x32+x59-y32_59 <=1 
C941: x32+x60-y32_60 <=1 
C942: x32+x61 <=1 
C943: x32+x62 <=1 
C944: x32+x64 <=1 
C945: x33+x34 <=1 
C946: x33+x35 <=1 
C947: x33+x36 <=1 
C948: x33+x37-y33_37 <=1 
C949: x33+x39 <=1 
C950: x33+x40-y33_40 <=1 
C951: x33+x41 <=1 
C952: x33+x42 <=1 
C953: x33+x44 <=1 
C954: x33+x45 <=1 
C955: x33+x46-y33_46 <=1 
C956: x33+x47-y33_47 <=1 
C957: x33+x48-y33_48 <=1 
C958: x33+x49-y33_49 <=1 
C959: x33+x51 <=1 
C960: x33+x52 <=1 
C961: x33+x54-y33_54 <=1 
C962: x33+x55-y33_55 <=1 
C963: x33+x56 <=1 
C964: x33+x58-y33_58 <=1 
C965: x33+x59-y33_59 <=1 
C966: x33+x60 <=1 
C967: x33+x61-y33_61 <=1 
C968: x33+x62 <=1 
C969: x33+x63-y33_63 <=1 
C970: x34+x36 <=1 
C971: x34+x37-y34_37 <=1 
C972: x34+x38-y34_38 <=1 
C973: x34+x40-y34_40 <=1 
C974: x34+x41 <=1 
C975: x34+x42 <=1 
C976: x34+x44 <=1 
C977: x34+x45 <=1 
C978: x34+x47-y34_47 <=1 
C979: x34+x50 <=1 
C980: x34+x53-y34_53 <=1 
C981: x34+x54 <=1 
C982: x34+x55 <=1 
C983: x34+x56 <=1 
C984: x34+x57-y34_57 <=1 
C985: x34+x60 <=1 
C986: x34+x62 <=1 
C987: x35+x40 <=1 
C988: x35+x43 <=1 
C989: x35+x45 <=1 
C990: x35+x47 <=1 
C991: x35+x49-y35_49 <=1 
C992: x35+x51-y35_51 <=1 
C993: x35+x56-y35_56 <=1 
C994: x35+x57 <=1 
C995: x35+x58-y35_58 <=1 
C996: x35+x60-y35_60 <=1 
C997: x35+x62 <=1 
C998: x35+x63 <=1 
C999: x35+x64-y35_64 <=1 
C1000: x36+x39-y36_39 <=1 
C1001: x36+x40 <=1 
C1002: x36+x43 <=1 
C1003: x36+x44 <=1 
C1004: x36+x48-y36_48 <=1 
C1005: x36+x49-y36_49 <=1 
C1006: x36+x50-y36_50 <=1 
C1007: x36+x54-y36_54 <=1 
C1008: x36+x56-y36_56 <=1 
C1009: x36+x60 <=1 
C1010: x36+x61 <=1 
C1011: x36+x63-y36_63 <=1 
C1012: x36+x64 <=1 
C1013: x37+x38 <=1 
C1014: x37+x40-y37_40 <=1 
C1015: x37+x41 <=1 
C1016: x37+x43 <=1 
C1017: x37+x46 <=1 
C1018: x37+x47-y37_47 <=1 
C1019: x37+x48-y37_48 <=1 
C1020: x37+x51-y37_51 <=1 
C1021: x37+x52-y37_52 <=1 
C1022: x37+x53-y37_53 <=1 
C1023: x37+x54-y37_54 <=1 
C1024: x37+x55-y37_55 <=1 
C1025: x37+x56-y37_56 <=1 
C1026: x37+x62-y37_62 <=1 
C1027: x37+x63 <=1 
C1028: x37+x64-y37_64 <=1 
C1029: x38+x39-y38_39 <=1 
C1030: x38+x43 <=1 
C1031: x38+x44-y38_44 <=1 
C1032: x38+x50-y38_50 <=1 
C1033: x38+x51-y38_51 <=1 
C1034: x38+x54 <=1 
C1035: x38+x55 <=1 
C1036: x38+x56-y38_56 <=1 
C1037: x38+x57-y38_57 <=1 
C1038: x38+x59 <=1 
C1039: x38+x60-y38_60 <=1 
C1040: x38+x61 <=1 
C1041: x38+x63 <=1 
C1042: x38+x64 <=1 
C1043: x39+x40-y39_40 <=1 
C1044: x39+x42 <=1 
C1045: x39+x46 <=1 
C1046: x39+x48-y39_48 <=1 
C1047: x39+x49-y39_49 <=1 
C1048: x39+x50 <=1 
C1049: x39+x52 <=1 
C1050: x39+x55 <=1 
C1051: x39+x57 <=1 
C1052: x39+x58-y39_58 <=1 
C1053: x39+x59-y39_59 <=1 
C1054: x39+x60-y39_60 <=1 
C1055: x39+x61 <=1 
C1056: x39+x62-y39_62 <=1 
C1057: x39+x63-y39_63 <=1 
C1058: x40+x43 <=1 
C1059: x40+x44 <=1 
C1060: x40+x45-y40_45 <=1 
C1061: x40+x51-y40_51 <=1 
C1062: x40+x52 <=1 
C1063: x40+x53-y40_53 <=1 
C1064: x40+x54 <=1 
C1065: x40+x55-y40_55 <=1 
C1066: x40+x59-y40_59 <=1 
C1067: x40+x60-y40_60 <=1 
C1068: x40+x61-y40_61 <=1 
C1069: x40+x63-y40_63 <=1 
C1070: x41+x42-y41_42 <=1 
C1071: x41+x43 <=1 
C1072: x41+x44 <=1 
C1073: x41+x45-y41_45 <=1 
C1074: x41+x46-y41_46 <=1 
C1075: x41+x48-y41_48 <=1 
C1076: x41+x50-y41_50 <=1 
C1077: x41+x51 <=1 
C1078: x41+x52-y41_52 <=1 
C1079: x41+x55 <=1 
C1080: x41+x57 <=1 
C1081: x41+x59 <=1 
C1082: x41+x60-y41_60 <=1 
C1083: x41+x61-y41_61 <=1 
C1084: x41+x62-y41_62 <=1 
C1085: x41+x63-y41_63 <=1 
C1086: x42+x43-y42_43 <=1 
C1087: x42+x44-y42_44 <=1 
C1088: x42+x45-y42_45 <=1 
C1089: x42+x46-y42_46 <=1 
C1090: x42+x48 <=1 
C1091: x42+x49-y42_49 <=1 
C1092: x42+x50 <=1 
C1093: x42+x52 <=1 
C1094: x42+x53-y42_53 <=1 
C1095: x42+x55-y42_55 <=1 
C1096: x42+x56 <=1 
C1097: x42+x59-y42_59 <=1 
C1098: x42+x60 <=1 
C1099: x42+x61-y42_61 <=1 
C1100: x42+x62 <=1 
C1101: x42+x63 <=1 
C1102: x42+x64-y42_64 <=1 
C1103: x43+x45-y43_45 <=1 
C1104: x43+x48-y43_48 <=1 
C1105: x43+x49 <=1 
C1106: x43+x50 <=1 
C1107: x43+x55-y43_55 <=1 
C1108: x43+x60 <=1 
C1109: x43+x61-y43_61 <=1 
C1110: x43+x62-y43_62 <=1 
C1111: x43+x64-y43_64 <=1 
C1112: x44+x46-y44_46 <=1 
C1113: x44+x49 <=1 
C1114: x44+x50-y44_50 <=1 
C1115: x44+x51 <=1 
C1116: x44+x53-y44_53 <=1 
C1117: x44+x54-y44_54 <=1 
C1118: x44+x55 <=1 
C1119: x44+x56 <=1 
C1120: x44+x57 <=1 
C1121: x44+x58-y44_58 <=1 
C1122: x44+x60 <=1 
C1123: x44+x61-y44_61 <=1 
C1124: x44+x62-y44_62 <=1 
C1125: x44+x63-y44_63 <=1 
C1126: x45+x47 <=1 
C1127: x45+x49 <=1 
C1128: x45+x52-y45_52 <=1 
C1129: x45+x53 <=1 
C1130: x45+x57 <=1 
C1131: x45+x58 <=1 
C1132: x45+x60-y45_60 <=1 
C1133: x45+x64-y45_64 <=1 
C1134: x46+x49-y46_49 <=1 
C1135: x46+x50-y46_50 <=1 
C1136: x46+x51-y46_51 <=1 
C1137: x46+x52-y46_52 <=1 
C1138: x46+x53 <=1 
C1139: x46+x54-y46_54 <=1 
C1140: x46+x57-y46_57 <=1 
C1141: x46+x60 <=1 
C1142: x46+x61-y46_61 <=1 
C1143: x46+x62 <=1 
C1144: x46+x63 <=1 
C1145: x47+x48-y47_48 <=1 
C1146: x47+x49 <=1 
C1147: x47+x50 <=1 
C1148: x47+x54-y47_54 <=1 
C1149: x47+x56 <=1 
C1150: x47+x57-y47_57 <=1 
C1151: x47+x59-y47_59 <=1 
C1152: x47+x61 <=1 
C1153: x47+x64 <=1 
C1154: x48+x50-y48_50 <=1 
C1155: x48+x51-y48_51 <=1 
C1156: x48+x59 <=1 
C1157: x48+x60 <=1 
C1158: x48+x61 <=1 
C1159: x48+x63 <=1 
C1160: x49+x50 <=1 
C1161: x49+x52 <=1 
C1162: x49+x53 <=1 
C1163: x49+x54-y49_54 <=1 
C1164: x49+x57 <=1 
C1165: x49+x58 <=1 
C1166: x49+x59 <=1 
C1167: x49+x60 <=1 
C1168: x49+x62-y49_62 <=1 
C1169: x49+x63 <=1 
C1170: x50+x51-y50_51 <=1 
C1171: x50+x52-y50_52 <=1 
C1172: x50+x54-y50_54 <=1 
C1173: x50+x55-y50_55 <=1 
C1174: x50+x57 <=1 
C1175: x50+x59 <=1 
C1176: x50+x60-y50_60 <=1 
C1177: x50+x61-y50_61 <=1 
C1178: x50+x63-y50_63 <=1 
C1179: x50+x64-y50_64 <=1 
C1180: x51+x53-y51_53 <=1 
C1181: x51+x54-y51_54 <=1 
C1182: x51+x55 <=1 
C1183: x51+x57-y51_57 <=1 
C1184: x51+x58 <=1 
C1185: x51+x61-y51_61 <=1 
C1186: x52+x53 <=1 
C1187: x52+x54-y52_54 <=1 
C1188: x52+x55 <=1 
C1189: x52+x56 <=1 
C1190: x52+x57-y52_57 <=1 
C1191: x52+x58-y52_58 <=1 
C1192: x52+x59 <=1 
C1193: x52+x61 <=1 
C1194: x52+x62 <=1 
C1195: x52+x64 <=1 
C1196: x53+x54 <=1 
C1197: x53+x55-y53_55 <=1 
C1198: x53+x56 <=1 
C1199: x53+x57 <=1 
C1200: x53+x58-y53_58 <=1 
C1201: x53+x59-y53_59 <=1 
C1202: x53+x60 <=1 
C1203: x53+x63-y53_63 <=1 
C1204: x54+x55-y54_55 <=1 
C1205: x54+x56-y54_56 <=1 
C1206: x54+x57 <=1 
C1207: x54+x58-y54_58 <=1 
C1208: x54+x61-y54_61 <=1 
C1209: x54+x64 <=1 
C1210: x55+x57 <=1 
C1211: x55+x58 <=1 
C1212: x55+x59-y55_59 <=1 
C1213: x55+x60-y55_60 <=1 
C1214: x55+x61-y55_61 <=1 
C1215: x55+x63-y55_63 <=1 
C1216: x55+x64 <=1 
C1217: x56+x58 <=1 
C1218: x56+x59-y56_59 <=1 
C1219: x56+x60-y56_60 <=1 
C1220: x56+x61-y56_61 <=1 
C1221: x56+x63-y56_63 <=1 
C1222: x56+x64-y56_64 <=1 
C1223: x57+x63-y57_63 <=1 
C1224: x57+x64 <=1 
C1225: x58+x60 <=1 
C1226: x58+x61 <=1 
C1227: x58+x64-y58_64 <=1 
C1228: x59+x61-y59_61 <=1 
C1229: x59+x62-y59_62 <=1 
C1230: x59+x64 <=1 
C1231: x60+x63 <=1 
C1232: x61+x62-y61_62 <=1 
C1233: x61+x63-y61_63 <=1 
C1234: x61+x64-y61_64 <=1 
C1235: x62+x63 <=1 
C1236: x62+x64-y62_64 <=1 
C1237: x63+x64 <=1 

binary
x0
x1
x2
x3
x4
x5
x6
x7
x8
x9
x10
x11
x12
x13
x14
x15
x16
x17
x18
x19
x20
x21
x22
x23
x24
x25
x26
x27
x28
x29
x30
x31
x32
x33
x34
x35
x36
x37
x38
x39
x40
x41
x42
x43
x44
x45
x46
x47
x48
x49
x50
x51
x52
x53
x54
x55
x56
x57
x58
x59
x60
x61
x62
x63
x64
