problem_generation/data/GISP/train/er_n=65_m=1237_p=0.60_SET2_setparam=100.00_alpha=0.50_348.sol
objective value:                                 1273
x5                                                  1 	(obj:100)
x9                                                  1 	(obj:100)
x12                                                 1 	(obj:100)
x13                                                 1 	(obj:100)
x15                                                 1 	(obj:100)
x16                                                 1 	(obj:100)
x37                                                 1 	(obj:100)
x45                                                 1 	(obj:100)
x56                                                 1 	(obj:100)
x59                                                 1 	(obj:100)
x60                                                 1 	(obj:100)
x61                                                 1 	(obj:100)
x62                                                 1 	(obj:100)
y16_60                                              1 	(obj:-1)
y16_37                                              1 	(obj:-1)
y13_59                                              1 	(obj:-1)
y61_62                                              1 	(obj:-1)
y15_62                                              1 	(obj:-1)
y5_16                                               1 	(obj:-1)
y12_15                                              1 	(obj:-1)
y13_16                                              1 	(obj:-1)
y37_62                                              1 	(obj:-1)
y15_61                                              1 	(obj:-1)
y12_37                                              1 	(obj:-1)
y56_61                                              1 	(obj:-1)
y37_56                                              1 	(obj:-1)
y59_62                                              1 	(obj:-1)
y59_61                                              1 	(obj:-1)
y5_61                                               1 	(obj:-1)
y9_59                                               1 	(obj:-1)
y13_56                                              1 	(obj:-1)
y16_61                                              1 	(obj:-1)
y15_60                                              1 	(obj:-1)
y45_60                                              1 	(obj:-1)
y56_60                                              1 	(obj:-1)
y12_13                                              1 	(obj:-1)
y5_9                                                1 	(obj:-1)
y15_59                                              1 	(obj:-1)
y56_59                                              1 	(obj:-1)
y12_16                                              1 	(obj:-1)
